Total weight: 1645.7974649379712
Route 1: 0 2 45 5 8 46 4 3 1 70 0 
Route 2: 0 88 79 6 7 100 0 
Route 3: 0 82 11 12 14 16 17 0 
Route 4: 0 15 47 73 78 60 55 0 
Route 5: 0 51 19 49 48 18 22 20 74 0 
Route 6: 0 77 21 23 25 24 0 
Route 7: 0 29 27 26 30 28 32 31 34 50 56 0 
Route 8: 0 63 33 43 35 36 0 
Route 9: 0 42 39 38 40 37 72 93 96 0 
Route 10: 0 61 44 41 54 81 0 
Route 11: 0 90 99 57 83 66 0 
Route 12: 0 65 52 86 87 59 97 75 58 0 
Route 13: 0 92 95 62 67 71 94 91 80 0 
Route 14: 0 69 98 53 10 13 9 0 
Route 15: 0 89 85 76 84 64 0 
Route 16: 0 68 0 
